Route 1: 83 52 59 2 45 5 61 69 98 88 14 47 16 73 79 53 78 12 82 90 10 7 60 46 55 4 3 1 17 25 58
Route 2: 65 95 31 28 29 27 33 64 19 23 76 18 86 99 87 9 81 85 32 26 34 35 43 89 77 48
Route 3: 92 72 39 42 36 71 62 30 63 67 21 22 84 50 51 49 57 94 20 68 37 54 91 80 24 93
Route 4: 15 11 44 40 38 41 8 6 75 97 56 66 13 74 96 100 70
Vehicles: 4
Distance: 2402.16
